32      4       
13      11      11      13      
0       0       0       0       0       3       2       3       4       
9       2       0       0       0       3       6       18      21      
3       0       0       2       0       2       5       6       
2       0       0       0       4       1       25      
4       10      0       0       0       3       7       9       14      
10      0       0       1       0       1       22      
2       0       0       4       0       3       8       10      11      
7       0       9       0       0       3       16      30      31      
6       0       0       4       0       2       11      31      
9       8       0       0       0       2       12      28      
2       8       0       0       0       2       13      23      
5       3       0       0       0       1       27      
6       0       0       5       0       3       16      17      18      
5       0       0       3       0       2       15      19      
9       0       0       6       0       3       16      20      21      
9       0       0       10      0       1       29      
8       0       7       0       0       2       19      21      
5       0       0       0       4       2       19      25      
3       0       9       0       0       1       28      
2       0       6       0       0       3       22      24      25      
2       0       1       0       0       1       26      
9       0       0       0       8       1       23      
8       0       0       0       4       1       27      
3       0       0       1       0       2       26      31      
6       0       0       0       9       1       26      
5       0       6       0       0       2       27      28      
8       0       4       0       0       2       29      30      
8       0       0       0       5       2       29      30      
4       0       0       0       1       1       32      
3       0       0       0       2       1       32      
3       0       0       2       0       1       32      
0       0       0       0       0       0       